Grasp exp. instance_n_20_m_5_id_3.lp tipoLifted 0 szPool 5 nIteration 20 alpha 0.6 
Academic license - for non-commercial use only
Read LP format model from file ../input/instancesGenerated/instance_n_20_m_5_id_3.lp
Reading time = 0.00 seconds
: 5 rows, 20 columns, 100 nonzeros
Optimize a model with 5 rows, 20 columns and 100 nonzeros
Variable types: 0 continuous, 20 integer (20 binary)
Coefficient statistics:
  Matrix range     [1e+00, 1e+01]
  Objective range  [1e+00, 1e+01]
  Bounds range     [1e+00, 1e+00]
  RHS range        [5e+01, 6e+01]
Found heuristic solution: objective 52.0000000

Explored 0 nodes (0 simplex iterations) in 0.00 seconds
Thread count was 1 (of 8 available processors)

Solution count 1: 52 
No other solutions better than 0

Solution limit reached
Best objective 5.200000000000e+01, best bound -, gap -
C_1:	 1.00 x_1  = 1.000000 + 5.00 x_2  = 1.000000 + 2.00 x_3  = 0.000000 + 7.00 x_4  = 1.000000 + 5.00 x_5  = 1.000000 + 3.00 x_6  = 0.000000 + 9.00 x_7  = 0.628205 + 6.00 x_8  = 0.000000 + 3.00 x_9  = 0.769231 + 7.00 x_10  = 0.000000 + 9.00 x_11  = 0.000000 + 5.00 x_12  = 1.000000 + 10.00 x_13  = 0.000000 + 2.00 x_14  = 1.000000 + 6.00 x_15  = 0.910256 + 10.00 x_16  = 0.000000 + 7.00 x_17  = 0.000000 + 4.00 x_18  = 1.000000 + 5.00 x_19  = 1.000000 + 6.00 x_20  = 0.000000 <= 56.00
C_2:	 4.00 x_1  = 1.000000 + 7.00 x_2  = 1.000000 + 2.00 x_3  = 0.000000 + 8.00 x_4  = 1.000000 + 3.00 x_5  = 1.000000 + 10.00 x_6  = 0.000000 + 4.00 x_7  = 0.628205 + 8.00 x_8  = 0.000000 + 9.00 x_9  = 0.769231 + 10.00 x_10  = 0.000000 + 1.00 x_11  = 0.000000 + 1.00 x_12  = 1.000000 + 6.00 x_13  = 0.000000 + 4.00 x_14  = 1.000000 + 7.00 x_15  = 0.910256 + 10.00 x_16  = 0.000000 + 8.00 x_17  = 0.000000 + 7.00 x_18  = 1.000000 + 7.00 x_19  = 1.000000 + 1.00 x_20  = 0.000000 <= 58.00
C_3:	 3.00 x_1  = 1.000000 + 6.00 x_2  = 1.000000 + 7.00 x_3  = 0.000000 + 5.00 x_4  = 1.000000 + 9.00 x_5  = 1.000000 + 2.00 x_6  = 0.000000 + 4.00 x_7  = 0.628205 + 5.00 x_8  = 0.000000 + 7.00 x_9  = 0.769231 + 10.00 x_10  = 0.000000 + 3.00 x_11  = 0.000000 + 3.00 x_12  = 1.000000 + 7.00 x_13  = 0.000000 + 4.00 x_14  = 1.000000 + 10.00 x_15  = 0.910256 + 1.00 x_16  = 0.000000 + 6.00 x_17  = 0.000000 + 3.00 x_18  = 1.000000 + 1.00 x_19  = 1.000000 + 6.00 x_20  = 0.000000 <= 51.00
C_4:	 2.00 x_1  = 1.000000 + 1.00 x_2  = 1.000000 + 8.00 x_3  = 0.000000 + 7.00 x_4  = 1.000000 + 7.00 x_5  = 1.000000 + 4.00 x_6  = 0.000000 + 8.00 x_7  = 0.628205 + 4.00 x_8  = 0.000000 + 10.00 x_9  = 0.769231 + 5.00 x_10  = 0.000000 + 4.00 x_11  = 0.000000 + 4.00 x_12  = 1.000000 + 2.00 x_13  = 0.000000 + 3.00 x_14  = 1.000000 + 8.00 x_15  = 0.910256 + 10.00 x_16  = 0.000000 + 6.00 x_17  = 0.000000 + 3.00 x_18  = 1.000000 + 5.00 x_19  = 1.000000 + 3.00 x_20  = 0.000000 <= 52.00
C_5:	 3.00 x_1  = 1.000000 + 7.00 x_2  = 1.000000 + 5.00 x_3  = 0.000000 + 1.00 x_4  = 1.000000 + 2.00 x_5  = 1.000000 + 6.00 x_6  = 0.000000 + 3.00 x_7  = 0.628205 + 9.00 x_8  = 0.000000 + 9.00 x_9  = 0.769231 + 3.00 x_10  = 0.000000 + 4.00 x_11  = 0.000000 + 10.00 x_12  = 1.000000 + 6.00 x_13  = 0.000000 + 1.00 x_14  = 1.000000 + 9.00 x_15  = 0.910256 + 2.00 x_16  = 0.000000 + 6.00 x_17  = 0.000000 + 6.00 x_18  = 1.000000 + 5.00 x_19  = 1.000000 + 7.00 x_20  = 0.000000 <= 52.00
Solution initial: 74.282051 
Number Constraints Used in Cover:5
GRASP Method!
Number cuts repeat: 0
value: 74.282051
Number Constraints Used in Cover:11
GRASP Method!
Number cuts repeat: 0
value: 74.282051
Number Constraints Used in Cover:16
GRASP Method!
Number cuts repeat: 0
value: 74.058140
Number Constraints Used in Cover:19
GRASP Method!
Number cuts repeat: 0
value: 74.058140
Number Constraints Used in Cover:29
GRASP Method!
Number cuts repeat: 0
value: 74.058140
Number Constraints Used in Cover:43
GRASP Method!
Number cuts repeat: 0
value: 74.058140
Number Constraints Used in Cover:51
GRASP Method!
Number cuts repeat: 0
value: 74.058140
Number Constraints Used in Cover:61
GRASP Method!
Number cuts repeat: 0
value: 74.058140
Number Constraints Used in Cover:68
GRASP Method!
Number cuts repeat: 0
value: 74.058140
Number Constraints Used in Cover:77
GRASP Method!
Number cuts repeat: 0
value: 74.058140
Number Constraints Used in Cover:92
GRASP Method!
Number cuts repeat: 0
value: 74.058140
Number Constraints Used in Cover:97
GRASP Method!
Number cuts repeat: 0
value: 74.058140
Number Constraints Used in Cover:105
GRASP Method!
Number cuts repeat: 0
value: 74.058140
Number Constraints Used in Cover:115
GRASP Method!
Number cuts repeat: 0
value: 74.058140
Number Constraints Used in Cover:129
GRASP Method!
Number cuts repeat: 0
value: 74.058140
Number Constraints Used in Cover:141
GRASP Method!
Number cuts repeat: 0
value: 74.058140
Number Constraints Used in Cover:155
GRASP Method!
Number cuts repeat: 0
value: 74.058140
Number Constraints Used in Cover:163
GRASP Method!
Number cuts repeat: 0
value: 74.058140
Number Constraints Used in Cover:174
GRASP Method!
Number cuts repeat: 0
value: 74.058140
Number Constraints Used in Cover:185
GRASP Method!
Number cuts repeat: 0
value: 74.058140
Number Constraints Used in Cover:195
GRASP Method!
Number cuts repeat: 0
value: 74.058140
Number Constraints Used in Cover:201
GRASP Method!
Number cuts repeat: 0
value: 74.058140
Number Constraints Used in Cover:213
GRASP Method!
Number cuts repeat: 0
value: 74.058140
Number Constraints Used in Cover:227
GRASP Method!
Number cuts repeat: 0
value: 74.058140
Number Constraints Used in Cover:235
GRASP Method!
Number cuts repeat: 0
value: 74.058140
Number Constraints Used in Cover:246
GRASP Method!
Number cuts repeat: 0
value: 74.058140
Number Constraints Used in Cover:255
GRASP Method!
Number cuts repeat: 0
value: 74.058140
Number Constraints Used in Cover:269
GRASP Method!
Number cuts repeat: 0
value: 74.058140
Number Constraints Used in Cover:280
GRASP Method!
Number cuts repeat: 0
value: 74.058140
Number Constraints Used in Cover:292
GRASP Method!
Number cuts repeat: 0
value: 74.058140
Number Constraints Used in Cover:307
GRASP Method!
Number cuts repeat: 0
value: 74.058140
Number Constraints Used in Cover:319
GRASP Method!
Number cuts repeat: 0
value: 74.058140
Number Constraints Used in Cover:329
GRASP Method!
Number cuts repeat: 0
value: 74.058140
Number Constraints Used in Cover:340
GRASP Method!
Number cuts repeat: 0
value: 74.058140
Number Constraints Used in Cover:350
GRASP Method!
Number cuts repeat: 0
value: 74.058140
Number Constraints Used in Cover:357
GRASP Method!
Number cuts repeat: 0
value: 74.058140
Number Constraints Used in Cover:365
GRASP Method!
Number cuts repeat: 0
value: 74.058140
Number Constraints Used in Cover:372
GRASP Method!
Number cuts repeat: 0
value: 74.058140
Number Constraints Used in Cover:379
GRASP Method!
Number cuts repeat: 0
value: 74.058140
Number Constraints Used in Cover:386
GRASP Method!
Number cuts repeat: 0
value: 74.058140
Number Constraints Used in Cover:391
GRASP Method!
Number cuts repeat: 0
value: 74.058140
Number Constraints Used in Cover:397
GRASP Method!
Number cuts repeat: 0
value: 74.058140
Number Constraints Used in Cover:402
GRASP Method!
Number cuts repeat: 0
value: 74.058140
Number Constraints Used in Cover:412
GRASP Method!
Number cuts repeat: 0
value: 74.058140
Number Constraints Used in Cover:419
GRASP Method!
Number cuts repeat: 0
value: 74.058140
Number Constraints Used in Cover:427
GRASP Method!
Number cuts repeat: 0
value: 74.058140
Number Constraints Used in Cover:430
GRASP Method!
Number cuts repeat: 0
value: 74.058140
Number Constraints Used in Cover:434
GRASP Method!
Number cuts repeat: 0
value: 74.058140
Number Constraints Used in Cover:442
GRASP Method!
Number cuts repeat: 0
value: 74.058140
Number Constraints Used in Cover:453
GRASP Method!
Number cuts repeat: 0
value: 74.055556
Number Constraints Used in Cover:459
GRASP Method!
Number cuts repeat: 0
value: 74.055556
Number Constraints Used in Cover:468
GRASP Method!
Number cuts repeat: 0
value: 74.055556
Number Constraints Used in Cover:475
GRASP Method!
Number cuts repeat: 0
value: 74.055556
Number Constraints Used in Cover:490
GRASP Method!
Number cuts repeat: 0
value: 74.055556
Number Constraints Used in Cover:497
GRASP Method!
Number cuts repeat: 0
value: 74.055556
Number Constraints Used in Cover:501
GRASP Method!
Number cuts repeat: 0
value: 74.055556
Number Constraints Used in Cover:507
GRASP Method!
Number cuts repeat: 0
value: 74.055556
Number Constraints Used in Cover:513
GRASP Method!
Number cuts repeat: 0
value: 74.055556
Number Constraints Used in Cover:516
GRASP Method!
Number cuts repeat: 0
value: 74.055556
Number Constraints Used in Cover:529
GRASP Method!
Number cuts repeat: 0
value: 74.055556
Number Constraints Used in Cover:530
GRASP Method!
Number cuts repeat: 0
value: 74.055556
Number Constraints Used in Cover:540
GRASP Method!
Number cuts repeat: 0
value: 74.055556
Number Constraints Used in Cover:548
GRASP Method!
Number cuts repeat: 0
value: 74.055556
Number Constraints Used in Cover:559
GRASP Method!
Number cuts repeat: 0
value: 74.055556
Number Constraints Used in Cover:566
GRASP Method!
Number cuts repeat: 0
value: 74.055556
Number Constraints Used in Cover:572
GRASP Method!
Number cuts repeat: 0
value: 74.055556
Number Constraints Used in Cover:579
GRASP Method!
Number cuts repeat: 0
value: 74.055556
Number Constraints Used in Cover:584
GRASP Method!
Number cuts repeat: 0
value: 74.055556
Number Constraints Used in Cover:588
GRASP Method!
Number cuts repeat: 0
value: 74.055556
Number Constraints Used in Cover:598
GRASP Method!
Number cuts repeat: 0
value: 74.055556
Number Constraints Used in Cover:600
GRASP Method!
Number cuts repeat: 0
value: 74.055556
Number Constraints Used in Cover:602
GRASP Method!
Number cuts repeat: 0
value: 74.055556
Number Constraints Used in Cover:611
GRASP Method!
Number cuts repeat: 0
value: 74.055556
Number Constraints Used in Cover:616
GRASP Method!
Number cuts repeat: 0
value: 74.055556
Number Constraints Used in Cover:620
GRASP Method!
Number cuts repeat: 0
value: 74.055556
Number Constraints Used in Cover:627
GRASP Method!
Number cuts repeat: 0
value: 74.055556
Number Constraints Used in Cover:631
GRASP Method!
Number cuts repeat: 0
value: 74.055556
Number Constraints Used in Cover:637
GRASP Method!
Number cuts repeat: 0
value: 74.055556
Number Constraints Used in Cover:643
GRASP Method!
Number cuts repeat: 0
value: 74.055556
Number Constraints Used in Cover:647
GRASP Method!
Number cuts repeat: 0
value: 74.055556
Number Constraints Used in Cover:653
GRASP Method!
Number cuts repeat: 0
value: 74.055556
Number Constraints Used in Cover:653
GRASP Method!
Number cuts repeat: 0
value: 74.055556
Number Constraints Used in Cover:659
GRASP Method!
Number cuts repeat: 0
value: 74.055556
Number Constraints Used in Cover:668
GRASP Method!
Number cuts repeat: 0
value: 74.055556
Number Constraints Used in Cover:676
GRASP Method!
Number cuts repeat: 0
value: 74.055556
Number Constraints Used in Cover:685
GRASP Method!
Number cuts repeat: 0
value: 74.055556
Number Constraints Used in Cover:689
GRASP Method!
Number cuts repeat: 0
value: 74.055556
Number Constraints Used in Cover:693
GRASP Method!
Number cuts repeat: 0
value: 74.055556
Number Constraints Used in Cover:702
GRASP Method!
Number cuts repeat: 0
value: 74.055556
Number Constraints Used in Cover:706
GRASP Method!
Number cuts repeat: 0
value: 74.055556
Number Constraints Used in Cover:712
GRASP Method!
Number cuts repeat: 0
value: 74.055556
Number Cuts Final: 713
